qbf_easy_train/easy_2995_SAT.qdimacs
p cnf 28 76
a 17 27 0
e 1 2 3 4 5 6 7 8 9 10 11 12 13 14 15 16 18 19 20 21 22 23 24 25 26 28 0
-4 -2 0
-4 -3 0
2 3 4 0
6 4 0
6 -5 0
-4 5 -6 0
-7 1 0
-7 6 0
-1 -6 7 0
-9 -6 0
-9 8 0
6 -8 9 0
10 -8 0
10 -9 0
8 9 -10 0
-11 -7 0
-11 -10 0
7 10 11 0
-8 -6 -12 0
8 6 -12 0
-8 6 12 0
8 -6 12 0
13 9 0
13 -3 0
-9 3 -13 0
9 8 -14 0
-9 -8 -14 0
9 -8 14 0
-9 8 14 0
15 -13 0
15 14 0
13 -14 -15 0
-16 12 0
-16 -15 0
-12 15 16 0
-18 -5 0
-18 17 0
5 -17 18 0
-19 -2 0
-19 -3 0
2 3 19 0
20 2 -21 0
-20 -2 -21 0
20 -2 21 0
-20 2 21 0
-19 21 -22 0
19 -21 -22 0
-19 -21 22 0
19 21 22 0
-23 18 0
-23 22 0
-18 -22 23 0
6 24 -25 0
-6 -24 -25 0
6 -24 25 0
-6 24 25 0
-23 -25 -26 0
23 25 -26 0
-23 25 26 0
23 -25 26 0
16 26 -27 0
-16 -26 -27 0
16 -26 27 0
-16 26 27 0
11 -27 -28 0
-11 27 -28 0
11 27 28 0
-11 -27 28 0
16 21 -13 12 1 0
-10 1 -18 -25 -16 -14 0
-12 -1 16 -19 -11 0
9 3 -16 -15 -28 10 0
7 28 -1 -11 0
26 3 20 -6 1 -8 14 0
13 -1 -6 28 0
28 0
