sat_easy_train/easy_2995_SAT.dimacs
p cnf 136 448
3 -1 0
3 -2 0
1 2 -3 0
-5 3 0
-5 -4 0
-3 4 5 0
-7 -2 0
-7 6 0
2 -6 7 0
5 -7 -8 0
-5 7 -8 0
5 7 8 0
-5 -7 8 0
-2 9 -10 0
2 -9 -10 0
-2 -9 10 0
2 9 10 0
-11 12 0
11 12 0
13 10 0
13 -12 0
-10 12 -13 0
-14 2 0
-14 13 0
-2 -13 14 0
16 -3 0
16 15 0
3 -15 -16 0
16 17 -18 0
-16 -17 -18 0
16 -17 18 0
-16 17 18 0
-19 4 0
-19 -1 0
-4 1 19 0
-20 18 0
-20 19 0
-18 -19 20 0
-21 -14 0
-21 -20 0
14 20 21 0
-22 6 0
-22 -21 0
-6 21 22 0
8 22 -23 0
-8 -22 -23 0
8 -22 23 0
-8 22 23 0
-24 6 0
-24 15 0
-6 -15 24 0
25 -1 0
25 6 0
1 -6 -25 0
-26 24 0
-26 -25 0
-24 25 26 0
-26 27 -28 0
26 -27 -28 0
-26 -27 28 0
26 27 28 0
29 -10 0
29 19 0
10 -19 -29 0
31 -12 0
31 -30 0
12 30 -31 0
31 1 -32 0
-31 -1 -32 0
31 -1 32 0
-31 1 32 0
-32 -25 -33 0
32 25 -33 0
-32 25 33 0
32 -25 33 0
-34 -29 0
-34 -33 0
29 33 34 0
-35 -28 0
-35 -34 0
28 34 35 0
36 37 -38 0
-36 -37 -38 0
36 -37 38 0
-36 37 38 0
-38 -36 -39 0
38 36 -39 0
-38 36 39 0
38 -36 39 0
-41 40 0
-41 -11 0
-40 11 41 0
-9 -41 -42 0
9 41 -42 0
-9 41 42 0
9 -41 42 0
-43 39 0
-43 42 0
-39 -42 43 0
-44 -43 0
-44 -24 0
43 24 44 0
12 44 -45 0
-12 -44 -45 0
12 -44 45 0
-12 44 45 0
-46 45 0
-46 39 0
-45 -39 46 0
47 6 0
47 46 0
-6 -46 -47 0
48 35 0
48 47 0
-35 -47 -48 0
49 -4 0
49 25 0
4 -25 -49 0
49 40 -50 0
-49 -40 -50 0
49 -40 50 0
-49 40 50 0
-32 -50 -51 0
32 50 -51 0
-32 50 51 0
32 -50 51 0
-53 -52 0
-53 -41 0
52 41 53 0
-53 20 -54 0
53 -20 -54 0
-53 -20 54 0
53 20 54 0
-55 -51 0
-55 54 0
51 -54 55 0
-56 48 0
-56 -55 0
-48 55 56 0
-57 23 0
-57 56 0
-23 -56 57 0
-59 36 0
-59 -13 0
-36 13 59 0
10 -59 -60 0
-10 59 -60 0
10 59 60 0
-10 -59 60 0
61 58 0
61 60 0
-58 -60 -61 0
-61 62 0
61 62 0
58 31 -63 0
-58 -31 -63 0
58 -31 63 0
-58 31 63 0
-64 18 0
-64 -63 0
-18 63 64 0
65 -64 0
65 16 0
64 -16 -65 0
-66 -62 0
-66 -65 0
62 65 66 0
67 -6 0
67 37 0
6 -37 -67 0
-25 -9 -68 0
25 9 -68 0
-25 9 68 0
25 -9 68 0
-69 -6 0
-69 30 0
6 -30 69 0
-70 -63 0
-70 -69 0
63 69 70 0
71 68 0
71 -70 0
-68 70 -71 0
-72 17 0
-72 -17 0
-73 71 0
-73 -72 0
-71 72 73 0
-74 67 0
-74 73 0
-67 -73 74 0
75 -66 0
75 -74 0
66 74 -75 0
76 -57 0
76 -75 0
57 75 -76 0
-3 -24 -77 0
3 24 -77 0
-3 24 77 0
3 -24 77 0
78 17 0
78 -10 0
-17 10 -78 0
-79 -44 0
-79 78 0
44 -78 79 0
-50 79 -80 0
50 -79 -80 0
-50 -79 80 0
50 79 80 0
81 77 0
81 -80 0
-77 80 -81 0
-24 -17 -82 0
24 17 -82 0
-24 17 82 0
24 -17 82 0
-29 -24 -83 0
29 24 -83 0
-29 24 83 0
29 -24 83 0
84 -25 0
84 -40 0
25 40 -84 0
-85 83 0
-85 84 0
-83 -84 85 0
86 -82 0
86 85 0
82 -85 -86 0
43 9 -87 0
-43 -9 -87 0
43 -9 87 0
-43 9 87 0
-88 -17 0
-88 44 0
17 -44 88 0
-89 -27 0
-89 -40 0
27 40 89 0
88 89 -90 0
-88 -89 -90 0
88 -89 90 0
-88 89 90 0
-87 90 -91 0
87 -90 -91 0
-87 -90 91 0
87 90 91 0
92 -86 0
92 -91 0
86 91 -92 0
-93 -81 0
-93 92 0
81 -92 93 0
-94 9 0
-94 -6 0
-9 6 94 0
95 -19 0
95 -19 0
19 -95 0
-96 -94 0
-96 95 0
94 -95 96 0
97 26 0
97 41 0
-26 -41 -97 0
-98 -97 0
-98 60 0
97 -60 98 0
99 1 0
99 -21 0
-1 21 -99 0
100 98 0
100 -99 0
-98 99 -100 0
-96 -100 -101 0
96 100 -101 0
-96 100 101 0
96 -100 101 0
-102 -93 0
-102 -101 0
93 101 102 0
103 -30 0
103 -25 0
30 25 -103 0
-24 103 -104 0
24 -103 -104 0
-24 -103 104 0
24 103 104 0
9 26 -105 0
-9 -26 -105 0
9 -26 105 0
-9 26 105 0
-106 1 0
-106 105 0
-1 -105 106 0
10 -38 -107 0
-10 38 -107 0
10 38 107 0
-10 -38 107 0
108 -107 0
108 63 0
107 -63 -108 0
-109 -106 0
-109 -108 0
106 108 109 0
110 3 0
110 -27 0
-3 27 -110 0
-111 -29 0
-111 -19 0
29 19 111 0
112 -110 0
112 -111 0
110 111 -112 0
-113 -109 0
-113 112 0
109 -112 113 0
114 -104 0
114 113 0
104 -113 -114 0
116 115 0
116 -27 0
-115 27 -116 0
117 114 0
117 -116 0
-114 116 -117 0
118 102 0
118 117 0
-102 -117 -118 0
9 -19 -119 0
-9 19 -119 0
9 19 119 0
-9 -19 119 0
120 -10 0
120 31 0
10 -31 -120 0
121 -10 0
121 -9 0
10 9 -121 0
122 120 0
122 -121 0
-120 121 -122 0
-123 119 0
-123 -122 0
-119 122 123 0
-124 32 0
-124 12 0
-32 -12 124 0
-125 -1 0
-125 -124 0
1 124 125 0
126 -123 0
126 -125 0
123 125 -126 0
-127 60 0
-127 -120 0
-60 120 127 0
-128 127 0
-128 127 0
-127 128 0
129 -14 0
129 27 0
14 -27 -129 0
130 -129 0
130 -60 0
129 60 -130 0
36 15 -131 0
-36 -15 -131 0
36 -15 131 0
-36 15 131 0
-132 -130 0
-132 131 0
130 -131 132 0
128 132 -133 0
-128 -132 -133 0
128 -132 133 0
-128 132 133 0
-134 126 0
-134 133 0
-126 -133 134 0
135 118 0
135 -134 0
-118 134 -135 0
76 -135 -136 0
-76 135 -136 0
76 135 136 0
-76 -135 136 0
18 8 -37 -49 -112 0
125 -40 7 63 -22 0
82 124 30 -81 -18 0
136 -49 -30 -135 0
44 99 0
81 82 0
14 132 125 0
-113 120 9 -29 -106 0
-132 -101 121 34 -131 0
-16 -1 -135 -17 -59 -31 0
-102 48 0
99 -33 -31 -65 0
116 -13 57 -41 0
39 20 67 0
44 22 27 -126 0
77 9 129 -112 0
42 37 0
118 92 105 -108 0
-3 -56 -117 -10 0
-125 5 84 91 -15 102 0
-96 -48 0
-47 -108 114 -90 56 0
-29 33 99 37 0
95 4 -59 81 0
-9 70 -61 85 0
-122 63 -29 -48 0
129 -27 -136 0
24 -55 0
52 5 -88 -38 -79 95 0
-134 2 69 40 78 0
-102 103 0
69 -109 -113 4 51 0
52 131 0
-1 13 65 0
-109 -135 0
-95 9 0
-96 63 0
107 132 17 0
-56 -2 120 0
-62 119 135 -4 29 -82 0
136 20 -78 135 0
23 120 61 122 -13 0
76 74 46 -62 -6 84 0
-7 5 0
-90 -38 92 66 0
39 -51 0
54 119 -111 112 -92 0
117 105 -92 0
-134 -96 -77 0
24 9 -27 -1 112 94 0
-40 -69 -21 44 0
105 5 100 -113 -116 -63 0
-42 -124 130 0
117 -56 53 -41 0
-109 115 -125 0
-31 121 -80 0
-40 75 -83 120 53 69 0
34 82 0
136 0
